proyfinal/src/viki/013/andrea/andrea-localstore/experimentInOfficeAgust.take6/worker_8/139dce41-f6af-4101-9454-973e8c51b378.als.cnf.out
Reading from standard input... Use '--help' for help.
============================[ Problem Statistics ]=============================
|                                                                             |
|  Number of variables:         87638                                         |
|  Number of clauses:          161767                                         |
|  Parse time:                   0.04 s                                       |
|                                                                             |
============================[ Search Statistics ]==============================
| Conflicts |          ORIGINAL         |          LEARNT          | Progress |
|           |    Vars  Clauses Literals |    Limit  Clauses Lit/Cl |          |
===============================================================================
|       100 |   62052   103956   259801 |    38117      100     40 | 29.195 % |
|       250 |   62052   103956   259801 |    41928      250     75 | 29.195 % |
|       475 |   62052   103956   259801 |    46121      475     59 | 29.195 % |
|       812 |   62052   103956   259801 |    50733      812     58 | 29.195 % |
|      1318 |   62052   103956   259801 |    55807     1318     66 | 29.195 % |
|      2077 |   62052   103956   259801 |    61388     2077     70 | 29.195 % |
|      3216 |   62052   103956   259801 |    67526     3216     89 | 29.195 % |
|      4924 |   47206    61844   156042 |    74279     4451     83 | 46.135 % |
|      7486 |   46924    60703   153287 |    81707     6567     67 | 46.457 % |
===============================================================================
restarts              : 38
conflicts             : 9220           (7456 /sec)
decisions             : 30253          (0.00 % random) (24464 /sec)
propagations          : 14042089       (11355162 /sec)
conflict literals     : 538844         (43.10 % deleted)
Memory used           : 28.34 MB
CPU time              : 1.23663 s

UNSATISFIABLE
